c File: flat200_3_0.col
c
c SOURCE: Joseph Culberson (joe@cs.ualberta.ca)
c DESCRIPTION: Quasi-random coloring problem
c              generated with flatness = 0
c                             probability = 0.036
c                             known coloring = 3
c                             random seed = 1054
c              Creation Date:  Wed Feb 24 10:39:58 1999
c Maximum degree = 8 Minimum degree = 1
c COLOR VERIFICATION: Using the permuted order
c under simple greedy yields the specified
c coloring number
c Color = 3 specified partitions = 3
c p edge 200 479
c cnf created by edge2cnf
p cnf 600 2237
-1 -2 0
-1 -3 0
-2 -3 0
1 2 3 0
-4 -5 0
-4 -6 0
-5 -6 0
4 5 6 0
-7 -8 0
-7 -9 0
-8 -9 0
7 8 9 0
-10 -11 0
-10 -12 0
-11 -12 0
10 11 12 0
-13 -14 0
-13 -15 0
-14 -15 0
13 14 15 0
-16 -17 0
-16 -18 0
-17 -18 0
16 17 18 0
-19 -20 0
-19 -21 0
-20 -21 0
19 20 21 0
-22 -23 0
-22 -24 0
-23 -24 0
22 23 24 0
-25 -26 0
-25 -27 0
-26 -27 0
25 26 27 0
-28 -29 0
-28 -30 0
-29 -30 0
28 29 30 0
-31 -32 0
-31 -33 0
-32 -33 0
31 32 33 0
-34 -35 0
-34 -36 0
-35 -36 0
34 35 36 0
-37 -38 0
-37 -39 0
-38 -39 0
37 38 39 0
-40 -41 0
-40 -42 0
-41 -42 0
40 41 42 0
-43 -44 0
-43 -45 0
-44 -45 0
43 44 45 0
-46 -47 0
-46 -48 0
-47 -48 0
46 47 48 0
-49 -50 0
-49 -51 0
-50 -51 0
49 50 51 0
-52 -53 0
-52 -54 0
-53 -54 0
52 53 54 0
-55 -56 0
-55 -57 0
-56 -57 0
55 56 57 0
-58 -59 0
-58 -60 0
-59 -60 0
58 59 60 0
-61 -62 0
-61 -63 0
-62 -63 0
61 62 63 0
-64 -65 0
-64 -66 0
-65 -66 0
64 65 66 0
-67 -68 0
-67 -69 0
-68 -69 0
67 68 69 0
-70 -71 0
-70 -72 0
-71 -72 0
70 71 72 0
-73 -74 0
-73 -75 0
-74 -75 0
73 74 75 0
-76 -77 0
-76 -78 0
-77 -78 0
76 77 78 0
-79 -80 0
-79 -81 0
-80 -81 0
79 80 81 0
-82 -83 0
-82 -84 0
-83 -84 0
82 83 84 0
-85 -86 0
-85 -87 0
-86 -87 0
85 86 87 0
-88 -89 0
-88 -90 0
-89 -90 0
88 89 90 0
-91 -92 0
-91 -93 0
-92 -93 0
91 92 93 0
-94 -95 0
-94 -96 0
-95 -96 0
94 95 96 0
-97 -98 0
-97 -99 0
-98 -99 0
97 98 99 0
-100 -101 0
-100 -102 0
-101 -102 0
100 101 102 0
-103 -104 0
-103 -105 0
-104 -105 0
103 104 105 0
-106 -107 0
-106 -108 0
-107 -108 0
106 107 108 0
-109 -110 0
-109 -111 0
-110 -111 0
109 110 111 0
-112 -113 0
-112 -114 0
-113 -114 0
112 113 114 0
-115 -116 0
-115 -117 0
-116 -117 0
115 116 117 0
-118 -119 0
-118 -120 0
-119 -120 0
118 119 120 0
-121 -122 0
-121 -123 0
-122 -123 0
121 122 123 0
-124 -125 0
-124 -126 0
-125 -126 0
124 125 126 0
-127 -128 0
-127 -129 0
-128 -129 0
127 128 129 0
-130 -131 0
-130 -132 0
-131 -132 0
130 131 132 0
-133 -134 0
-133 -135 0
-134 -135 0
133 134 135 0
-136 -137 0
-136 -138 0
-137 -138 0
136 137 138 0
-139 -140 0
-139 -141 0
-140 -141 0
139 140 141 0
-142 -143 0
-142 -144 0
-143 -144 0
142 143 144 0
-145 -146 0
-145 -147 0
-146 -147 0
145 146 147 0
-148 -149 0
-148 -150 0
-149 -150 0
148 149 150 0
-151 -152 0
-151 -153 0
-152 -153 0
151 152 153 0
-154 -155 0
-154 -156 0
-155 -156 0
154 155 156 0
-157 -158 0
-157 -159 0
-158 -159 0
157 158 159 0
-160 -161 0
-160 -162 0
-161 -162 0
160 161 162 0
-163 -164 0
-163 -165 0
-164 -165 0
163 164 165 0
-166 -167 0
-166 -168 0
-167 -168 0
166 167 168 0
-169 -170 0
-169 -171 0
-170 -171 0
169 170 171 0
-172 -173 0
-172 -174 0
-173 -174 0
172 173 174 0
-175 -176 0
-175 -177 0
-176 -177 0
175 176 177 0
-178 -179 0
-178 -180 0
-179 -180 0
178 179 180 0
-181 -182 0
-181 -183 0
-182 -183 0
181 182 183 0
-184 -185 0
-184 -186 0
-185 -186 0
184 185 186 0
-187 -188 0
-187 -189 0
-188 -189 0
187 188 189 0
-190 -191 0
-190 -192 0
-191 -192 0
190 191 192 0
-193 -194 0
-193 -195 0
-194 -195 0
193 194 195 0
-196 -197 0
-196 -198 0
-197 -198 0
196 197 198 0
-199 -200 0
-199 -201 0
-200 -201 0
199 200 201 0
-202 -203 0
-202 -204 0
-203 -204 0
202 203 204 0
-205 -206 0
-205 -207 0
-206 -207 0
205 206 207 0
-208 -209 0
-208 -210 0
-209 -210 0
208 209 210 0
-211 -212 0
-211 -213 0
-212 -213 0
211 212 213 0
-214 -215 0
-214 -216 0
-215 -216 0
214 215 216 0
-217 -218 0
-217 -219 0
-218 -219 0
217 218 219 0
-220 -221 0
-220 -222 0
-221 -222 0
220 221 222 0
-223 -224 0
-223 -225 0
-224 -225 0
223 224 225 0
-226 -227 0
-226 -228 0
-227 -228 0
226 227 228 0
-229 -230 0
-229 -231 0
-230 -231 0
229 230 231 0
-232 -233 0
-232 -234 0
-233 -234 0
232 233 234 0
-235 -236 0
-235 -237 0
-236 -237 0
235 236 237 0
-238 -239 0
-238 -240 0
-239 -240 0
238 239 240 0
-241 -242 0
-241 -243 0
-242 -243 0
241 242 243 0
-244 -245 0
-244 -246 0
-245 -246 0
244 245 246 0
-247 -248 0
-247 -249 0
-248 -249 0
247 248 249 0
-250 -251 0
-250 -252 0
-251 -252 0
250 251 252 0
-253 -254 0
-253 -255 0
-254 -255 0
253 254 255 0
-256 -257 0
-256 -258 0
-257 -258 0
256 257 258 0
-259 -260 0
-259 -261 0
-260 -261 0
259 260 261 0
-262 -263 0
-262 -264 0
-263 -264 0
262 263 264 0
-265 -266 0
-265 -267 0
-266 -267 0
265 266 267 0
-268 -269 0
-268 -270 0
-269 -270 0
268 269 270 0
-271 -272 0
-271 -273 0
-272 -273 0
271 272 273 0
-274 -275 0
-274 -276 0
-275 -276 0
274 275 276 0
-277 -278 0
-277 -279 0
-278 -279 0
277 278 279 0
-280 -281 0
-280 -282 0
-281 -282 0
280 281 282 0
-283 -284 0
-283 -285 0
-284 -285 0
283 284 285 0
-286 -287 0
-286 -288 0
-287 -288 0
286 287 288 0
-289 -290 0
-289 -291 0
-290 -291 0
289 290 291 0
-292 -293 0
-292 -294 0
-293 -294 0
292 293 294 0
-295 -296 0
-295 -297 0
-296 -297 0
295 296 297 0
-298 -299 0
-298 -300 0
-299 -300 0
298 299 300 0
-301 -302 0
-301 -303 0
-302 -303 0
301 302 303 0
-304 -305 0
-304 -306 0
-305 -306 0
304 305 306 0
-307 -308 0
-307 -309 0
-308 -309 0
307 308 309 0
-310 -311 0
-310 -312 0
-311 -312 0
310 311 312 0
-313 -314 0
-313 -315 0
-314 -315 0
313 314 315 0
-316 -317 0
-316 -318 0
-317 -318 0
316 317 318 0
-319 -320 0
-319 -321 0
-320 -321 0
319 320 321 0
-322 -323 0
-322 -324 0
-323 -324 0
322 323 324 0
-325 -326 0
-325 -327 0
-326 -327 0
325 326 327 0
-328 -329 0
-328 -330 0
-329 -330 0
328 329 330 0
-331 -332 0
-331 -333 0
-332 -333 0
331 332 333 0
-334 -335 0
-334 -336 0
-335 -336 0
334 335 336 0
-337 -338 0
-337 -339 0
-338 -339 0
337 338 339 0
-340 -341 0
-340 -342 0
-341 -342 0
340 341 342 0
-343 -344 0
-343 -345 0
-344 -345 0
343 344 345 0
-346 -347 0
-346 -348 0
-347 -348 0
346 347 348 0
-349 -350 0
-349 -351 0
-350 -351 0
349 350 351 0
-352 -353 0
-352 -354 0
-353 -354 0
352 353 354 0
-355 -356 0
-355 -357 0
-356 -357 0
355 356 357 0
-358 -359 0
-358 -360 0
-359 -360 0
358 359 360 0
-361 -362 0
-361 -363 0
-362 -363 0
361 362 363 0
-364 -365 0
-364 -366 0
-365 -366 0
364 365 366 0
-367 -368 0
-367 -369 0
-368 -369 0
367 368 369 0
-370 -371 0
-370 -372 0
-371 -372 0
370 371 372 0
-373 -374 0
-373 -375 0
-374 -375 0
373 374 375 0
-376 -377 0
-376 -378 0
-377 -378 0
376 377 378 0
-379 -380 0
-379 -381 0
-380 -381 0
379 380 381 0
-382 -383 0
-382 -384 0
-383 -384 0
382 383 384 0
-385 -386 0
-385 -387 0
-386 -387 0
385 386 387 0
-388 -389 0
-388 -390 0
-389 -390 0
388 389 390 0
-391 -392 0
-391 -393 0
-392 -393 0
391 392 393 0
-394 -395 0
-394 -396 0
-395 -396 0
394 395 396 0
-397 -398 0
-397 -399 0
-398 -399 0
397 398 399 0
-400 -401 0
-400 -402 0
-401 -402 0
400 401 402 0
-403 -404 0
-403 -405 0
-404 -405 0
403 404 405 0
-406 -407 0
-406 -408 0
-407 -408 0
406 407 408 0
-409 -410 0
-409 -411 0
-410 -411 0
409 410 411 0
-412 -413 0
-412 -414 0
-413 -414 0
412 413 414 0
-415 -416 0
-415 -417 0
-416 -417 0
415 416 417 0
-418 -419 0
-418 -420 0
-419 -420 0
418 419 420 0
-421 -422 0
-421 -423 0
-422 -423 0
421 422 423 0
-424 -425 0
-424 -426 0
-425 -426 0
424 425 426 0
-427 -428 0
-427 -429 0
-428 -429 0
427 428 429 0
-430 -431 0
-430 -432 0
-431 -432 0
430 431 432 0
-433 -434 0
-433 -435 0
-434 -435 0
433 434 435 0
-436 -437 0
-436 -438 0
-437 -438 0
436 437 438 0
-439 -440 0
-439 -441 0
-440 -441 0
439 440 441 0
-442 -443 0
-442 -444 0
-443 -444 0
442 443 444 0
-445 -446 0
-445 -447 0
-446 -447 0
445 446 447 0
-448 -449 0
-448 -450 0
-449 -450 0
448 449 450 0
-451 -452 0
-451 -453 0
-452 -453 0
451 452 453 0
-454 -455 0
-454 -456 0
-455 -456 0
454 455 456 0
-457 -458 0
-457 -459 0
-458 -459 0
457 458 459 0
-460 -461 0
-460 -462 0
-461 -462 0
460 461 462 0
-463 -464 0
-463 -465 0
-464 -465 0
463 464 465 0
-466 -467 0
-466 -468 0
-467 -468 0
466 467 468 0
-469 -470 0
-469 -471 0
-470 -471 0
469 470 471 0
-472 -473 0
-472 -474 0
-473 -474 0
472 473 474 0
-475 -476 0
-475 -477 0
-476 -477 0
475 476 477 0
-478 -479 0
-478 -480 0
-479 -480 0
478 479 480 0
-481 -482 0
-481 -483 0
-482 -483 0
481 482 483 0
-484 -485 0
-484 -486 0
-485 -486 0
484 485 486 0
-487 -488 0
-487 -489 0
-488 -489 0
487 488 489 0
-490 -491 0
-490 -492 0
-491 -492 0
490 491 492 0
-493 -494 0
-493 -495 0
-494 -495 0
493 494 495 0
-496 -497 0
-496 -498 0
-497 -498 0
496 497 498 0
-499 -500 0
-499 -501 0
-500 -501 0
499 500 501 0
-502 -503 0
-502 -504 0
-503 -504 0
502 503 504 0
-505 -506 0
-505 -507 0
-506 -507 0
505 506 507 0
-508 -509 0
-508 -510 0
-509 -510 0
508 509 510 0
-511 -512 0
-511 -513 0
-512 -513 0
511 512 513 0
-514 -515 0
-514 -516 0
-515 -516 0
514 515 516 0
-517 -518 0
-517 -519 0
-518 -519 0
517 518 519 0
-520 -521 0
-520 -522 0
-521 -522 0
520 521 522 0
-523 -524 0
-523 -525 0
-524 -525 0
523 524 525 0
-526 -527 0
-526 -528 0
-527 -528 0
526 527 528 0
-529 -530 0
-529 -531 0
-530 -531 0
529 530 531 0
-532 -533 0
-532 -534 0
-533 -534 0
532 533 534 0
-535 -536 0
-535 -537 0
-536 -537 0
535 536 537 0
-538 -539 0
-538 -540 0
-539 -540 0
538 539 540 0
-541 -542 0
-541 -543 0
-542 -543 0
541 542 543 0
-544 -545 0
-544 -546 0
-545 -546 0
544 545 546 0
-547 -548 0
-547 -549 0
-548 -549 0
547 548 549 0
-550 -551 0
-550 -552 0
-551 -552 0
550 551 552 0
-553 -554 0
-553 -555 0
-554 -555 0
553 554 555 0
-556 -557 0
-556 -558 0
-557 -558 0
556 557 558 0
-559 -560 0
-559 -561 0
-560 -561 0
559 560 561 0
-562 -563 0
-562 -564 0
-563 -564 0
562 563 564 0
-565 -566 0
-565 -567 0
-566 -567 0
565 566 567 0
-568 -569 0
-568 -570 0
-569 -570 0
568 569 570 0
-571 -572 0
-571 -573 0
-572 -573 0
571 572 573 0
-574 -575 0
-574 -576 0
-575 -576 0
574 575 576 0
-577 -578 0
-577 -579 0
-578 -579 0
577 578 579 0
-580 -581 0
-580 -582 0
-581 -582 0
580 581 582 0
-583 -584 0
-583 -585 0
-584 -585 0
583 584 585 0
-586 -587 0
-586 -588 0
-587 -588 0
586 587 588 0
-589 -590 0
-589 -591 0
-590 -591 0
589 590 591 0
-592 -593 0
-592 -594 0
-593 -594 0
592 593 594 0
-595 -596 0
-595 -597 0
-596 -597 0
595 596 597 0
-598 -599 0
-598 -600 0
-599 -600 0
598 599 600 0
-37 -1 0
-38 -2 0
-39 -3 0
-379 -1 0
-380 -2 0
-381 -3 0
-442 -1 0
-443 -2 0
-444 -3 0
-457 -1 0
-458 -2 0
-459 -3 0
-559 -1 0
-560 -2 0
-561 -3 0
-55 -4 0
-56 -5 0
-57 -6 0
-118 -4 0
-119 -5 0
-120 -6 0
-259 -4 0
-260 -5 0
-261 -6 0
-331 -4 0
-332 -5 0
-333 -6 0
-337 -4 0
-338 -5 0
-339 -6 0
-475 -4 0
-476 -5 0
-477 -6 0
-13 -7 0
-14 -8 0
-15 -9 0
-106 -7 0
-107 -8 0
-108 -9 0
-175 -7 0
-176 -8 0
-177 -9 0
-220 -7 0
-221 -8 0
-222 -9 0
-295 -7 0
-296 -8 0
-297 -9 0
-70 -10 0
-71 -11 0
-72 -12 0
-172 -10 0
-173 -11 0
-174 -12 0
-343 -10 0
-344 -11 0
-345 -12 0
-28 -13 0
-29 -14 0
-30 -15 0
-238 -13 0
-239 -14 0
-240 -15 0
-265 -13 0
-266 -14 0
-267 -15 0
-271 -13 0
-272 -14 0
-273 -15 0
-562 -13 0
-563 -14 0
-564 -15 0
-574 -13 0
-575 -14 0
-576 -15 0
-586 -13 0
-587 -14 0
-588 -15 0
-55 -16 0
-56 -17 0
-57 -18 0
-85 -16 0
-86 -17 0
-87 -18 0
-172 -16 0
-173 -17 0
-174 -18 0
-394 -16 0
-395 -17 0
-396 -18 0
-64 -19 0
-65 -20 0
-66 -21 0
-145 -19 0
-146 -20 0
-147 -21 0
-205 -19 0
-206 -20 0
-207 -21 0
-463 -19 0
-464 -20 0
-465 -21 0
-523 -19 0
-524 -20 0
-525 -21 0
-229 -22 0
-230 -23 0
-231 -24 0
-277 -22 0
-278 -23 0
-279 -24 0
-226 -25 0
-227 -26 0
-228 -27 0
-247 -25 0
-248 -26 0
-249 -27 0
-283 -25 0
-284 -26 0
-285 -27 0
-580 -25 0
-581 -26 0
-582 -27 0
-43 -28 0
-44 -29 0
-45 -30 0
-265 -28 0
-266 -29 0
-267 -30 0
-421 -28 0
-422 -29 0
-423 -30 0
-505 -28 0
-506 -29 0
-507 -30 0
-34 -31 0
-35 -32 0
-36 -33 0
-178 -31 0
-179 -32 0
-180 -33 0
-181 -31 0
-182 -32 0
-183 -33 0
-235 -31 0
-236 -32 0
-237 -33 0
-280 -31 0
-281 -32 0
-282 -33 0
-307 -31 0
-308 -32 0
-309 -33 0
-499 -31 0
-500 -32 0
-501 -33 0
-133 -34 0
-134 -35 0
-135 -36 0
-466 -34 0
-467 -35 0
-468 -36 0
-550 -34 0
-551 -35 0
-552 -36 0
-145 -37 0
-146 -38 0
-147 -39 0
-331 -37 0
-332 -38 0
-333 -39 0
-55 -40 0
-56 -41 0
-57 -42 0
-79 -40 0
-80 -41 0
-81 -42 0
-88 -40 0
-89 -41 0
-90 -42 0
-124 -40 0
-125 -41 0
-126 -42 0
-274 -40 0
-275 -41 0
-276 -42 0
-325 -40 0
-326 -41 0
-327 -42 0
-355 -40 0
-356 -41 0
-357 -42 0
-166 -43 0
-167 -44 0
-168 -45 0
-202 -43 0
-203 -44 0
-204 -45 0
-316 -43 0
-317 -44 0
-318 -45 0
-445 -43 0
-446 -44 0
-447 -45 0
-211 -46 0
-212 -47 0
-213 -48 0
-268 -46 0
-269 -47 0
-270 -48 0
-283 -46 0
-284 -47 0
-285 -48 0
-370 -46 0
-371 -47 0
-372 -48 0
-79 -49 0
-80 -50 0
-81 -51 0
-184 -49 0
-185 -50 0
-186 -51 0
-247 -49 0
-248 -50 0
-249 -51 0
-358 -49 0
-359 -50 0
-360 -51 0
-454 -49 0
-455 -50 0
-456 -51 0
-487 -49 0
-488 -50 0
-489 -51 0
-517 -49 0
-518 -50 0
-519 -51 0
-97 -52 0
-98 -53 0
-99 -54 0
-100 -52 0
-101 -53 0
-102 -54 0
-196 -52 0
-197 -53 0
-198 -54 0
-508 -52 0
-509 -53 0
-510 -54 0
-577 -52 0
-578 -53 0
-579 -54 0
-346 -55 0
-347 -56 0
-348 -57 0
-421 -55 0
-422 -56 0
-423 -57 0
-448 -55 0
-449 -56 0
-450 -57 0
-568 -55 0
-569 -56 0
-570 -57 0
-592 -55 0
-593 -56 0
-594 -57 0
-241 -58 0
-242 -59 0
-243 -60 0
-262 -58 0
-263 -59 0
-264 -60 0
-343 -58 0
-344 -59 0
-345 -60 0
-514 -58 0
-515 -59 0
-516 -60 0
-316 -61 0
-317 -62 0
-318 -63 0
-448 -61 0
-449 -62 0
-450 -63 0
-580 -61 0
-581 -62 0
-582 -63 0
-73 -64 0
-74 -65 0
-75 -66 0
-142 -64 0
-143 -65 0
-144 -66 0
-184 -64 0
-185 -65 0
-186 -66 0
-343 -64 0
-344 -65 0
-345 -66 0
-505 -64 0
-506 -65 0
-507 -66 0
-196 -67 0
-197 -68 0
-198 -69 0
-289 -67 0
-290 -68 0
-291 -69 0
-409 -67 0
-410 -68 0
-411 -69 0
-448 -70 0
-449 -71 0
-450 -72 0
-466 -70 0
-467 -71 0
-468 -72 0
-478 -70 0
-479 -71 0
-480 -72 0
-556 -70 0
-557 -71 0
-558 -72 0
-592 -70 0
-593 -71 0
-594 -72 0
-124 -73 0
-125 -74 0
-126 -75 0
-166 -73 0
-167 -74 0
-168 -75 0
-253 -73 0
-254 -74 0
-255 -75 0
-328 -73 0
-329 -74 0
-330 -75 0
-157 -76 0
-158 -77 0
-159 -78 0
-211 -76 0
-212 -77 0
-213 -78 0
-253 -76 0
-254 -77 0
-255 -78 0
-298 -76 0
-299 -77 0
-300 -78 0
-334 -76 0
-335 -77 0
-336 -78 0
-442 -76 0
-443 -77 0
-444 -78 0
-133 -79 0
-134 -80 0
-135 -81 0
-145 -79 0
-146 -80 0
-147 -81 0
-481 -79 0
-482 -80 0
-483 -81 0
-244 -82 0
-245 -83 0
-246 -84 0
-334 -82 0
-335 -83 0
-336 -84 0
-397 -82 0
-398 -83 0
-399 -84 0
-187 -85 0
-188 -86 0
-189 -87 0
-310 -85 0
-311 -86 0
-312 -87 0
-436 -85 0
-437 -86 0
-438 -87 0
-586 -85 0
-587 -86 0
-588 -87 0
-94 -88 0
-95 -89 0
-96 -90 0
-145 -88 0
-146 -89 0
-147 -90 0
-283 -88 0
-284 -89 0
-285 -90 0
-340 -88 0
-341 -89 0
-342 -90 0
-388 -88 0
-389 -89 0
-390 -90 0
-181 -91 0
-182 -92 0
-183 -93 0
-286 -91 0
-287 -92 0
-288 -93 0
-463 -91 0
-464 -92 0
-465 -93 0
-271 -94 0
-272 -95 0
-273 -96 0
-331 -94 0
-332 -95 0
-333 -96 0
-382 -94 0
-383 -95 0
-384 -96 0
-469 -94 0
-470 -95 0
-471 -96 0
-259 -97 0
-260 -98 0
-261 -99 0
-283 -97 0
-284 -98 0
-285 -99 0
-445 -97 0
-446 -98 0
-447 -99 0
-130 -100 0
-131 -101 0
-132 -102 0
-238 -100 0
-239 -101 0
-240 -102 0
-253 -100 0
-254 -101 0
-255 -102 0
-313 -100 0
-314 -101 0
-315 -102 0
-349 -100 0
-350 -101 0
-351 -102 0
-376 -100 0
-377 -101 0
-378 -102 0
-352 -103 0
-353 -104 0
-354 -105 0
-595 -103 0
-596 -104 0
-597 -105 0
-262 -106 0
-263 -107 0
-264 -108 0
-283 -106 0
-284 -107 0
-285 -108 0
-382 -106 0
-383 -107 0
-384 -108 0
-538 -106 0
-539 -107 0
-540 -108 0
-547 -106 0
-548 -107 0
-549 -108 0
-202 -109 0
-203 -110 0
-204 -111 0
-286 -109 0
-287 -110 0
-288 -111 0
-346 -109 0
-347 -110 0
-348 -111 0
-445 -109 0
-446 -110 0
-447 -111 0
-493 -109 0
-494 -110 0
-495 -111 0
-124 -112 0
-125 -113 0
-126 -114 0
-190 -112 0
-191 -113 0
-192 -114 0
-202 -112 0
-203 -113 0
-204 -114 0
-310 -112 0
-311 -113 0
-312 -114 0
-196 -115 0
-197 -116 0
-198 -117 0
-424 -115 0
-425 -116 0
-426 -117 0
-565 -115 0
-566 -116 0
-567 -117 0
-202 -118 0
-203 -119 0
-204 -120 0
-424 -118 0
-425 -119 0
-426 -120 0
-481 -118 0
-482 -119 0
-483 -120 0
-502 -118 0
-503 -119 0
-504 -120 0
-544 -118 0
-545 -119 0
-546 -120 0
-580 -118 0
-581 -119 0
-582 -120 0
-424 -121 0
-425 -122 0
-426 -123 0
-154 -124 0
-155 -125 0
-156 -126 0
-169 -124 0
-170 -125 0
-171 -126 0
-343 -124 0
-344 -125 0
-345 -126 0
-568 -124 0
-569 -125 0
-570 -126 0
-580 -124 0
-581 -125 0
-582 -126 0
-193 -127 0
-194 -128 0
-195 -129 0
-397 -127 0
-398 -128 0
-399 -129 0
-181 -130 0
-182 -131 0
-183 -132 0
-388 -130 0
-389 -131 0
-390 -132 0
-454 -130 0
-455 -131 0
-456 -132 0
-478 -130 0
-479 -131 0
-480 -132 0
-514 -133 0
-515 -134 0
-516 -135 0
-586 -133 0
-587 -134 0
-588 -135 0
-262 -136 0
-263 -137 0
-264 -138 0
-307 -136 0
-308 -137 0
-309 -138 0
-403 -136 0
-404 -137 0
-405 -138 0
-460 -136 0
-461 -137 0
-462 -138 0
-154 -139 0
-155 -140 0
-156 -141 0
-283 -139 0
-284 -140 0
-285 -141 0
-370 -139 0
-371 -140 0
-372 -141 0
-586 -139 0
-587 -140 0
-588 -141 0
-235 -142 0
-236 -143 0
-237 -144 0
-256 -142 0
-257 -143 0
-258 -144 0
-334 -142 0
-335 -143 0
-336 -144 0
-487 -142 0
-488 -143 0
-489 -144 0
-502 -142 0
-503 -143 0
-504 -144 0
-544 -142 0
-545 -143 0
-546 -144 0
-427 -145 0
-428 -146 0
-429 -147 0
-532 -145 0
-533 -146 0
-534 -147 0
-577 -145 0
-578 -146 0
-579 -147 0
-232 -148 0
-233 -149 0
-234 -150 0
-361 -148 0
-362 -149 0
-363 -150 0
-493 -148 0
-494 -149 0
-495 -150 0
-580 -148 0
-581 -149 0
-582 -150 0
-406 -151 0
-407 -152 0
-408 -153 0
-478 -151 0
-479 -152 0
-480 -153 0
-484 -154 0
-485 -155 0
-486 -156 0
-322 -157 0
-323 -158 0
-324 -159 0
-427 -157 0
-428 -158 0
-429 -159 0
-505 -157 0
-506 -158 0
-507 -159 0
-541 -157 0
-542 -158 0
-543 -159 0
-556 -157 0
-557 -158 0
-558 -159 0
-298 -160 0
-299 -161 0
-300 -162 0
-298 -163 0
-299 -164 0
-300 -165 0
-331 -163 0
-332 -164 0
-333 -165 0
-433 -163 0
-434 -164 0
-435 -165 0
-436 -163 0
-437 -164 0
-438 -165 0
-490 -163 0
-491 -164 0
-492 -165 0
-499 -163 0
-500 -164 0
-501 -165 0
-202 -166 0
-203 -167 0
-204 -168 0
-208 -166 0
-209 -167 0
-210 -168 0
-370 -166 0
-371 -167 0
-372 -168 0
-235 -169 0
-236 -170 0
-237 -171 0
-424 -169 0
-425 -170 0
-426 -171 0
-595 -169 0
-596 -170 0
-597 -171 0
-193 -172 0
-194 -173 0
-195 -174 0
-238 -172 0
-239 -173 0
-240 -174 0
-364 -172 0
-365 -173 0
-366 -174 0
-550 -172 0
-551 -173 0
-552 -174 0
-571 -172 0
-572 -173 0
-573 -174 0
-313 -175 0
-314 -176 0
-315 -177 0
-391 -175 0
-392 -176 0
-393 -177 0
-319 -178 0
-320 -179 0
-321 -180 0
-463 -178 0
-464 -179 0
-465 -180 0
-193 -181 0
-194 -182 0
-195 -183 0
-280 -184 0
-281 -185 0
-282 -186 0
-379 -184 0
-380 -185 0
-381 -186 0
-217 -187 0
-218 -188 0
-219 -189 0
-238 -187 0
-239 -188 0
-240 -189 0
-313 -187 0
-314 -188 0
-315 -189 0
-379 -187 0
-380 -188 0
-381 -189 0
-592 -187 0
-593 -188 0
-594 -189 0
-238 -190 0
-239 -191 0
-240 -192 0
-253 -190 0
-254 -191 0
-255 -192 0
-262 -190 0
-263 -191 0
-264 -192 0
-295 -190 0
-296 -191 0
-297 -192 0
-331 -190 0
-332 -191 0
-333 -192 0
-568 -190 0
-569 -191 0
-570 -192 0
-343 -193 0
-344 -194 0
-345 -195 0
-352 -193 0
-353 -194 0
-354 -195 0
-388 -193 0
-389 -194 0
-390 -195 0
-442 -193 0
-443 -194 0
-444 -195 0
-511 -196 0
-512 -197 0
-513 -198 0
-547 -196 0
-548 -197 0
-549 -198 0
-583 -196 0
-584 -197 0
-585 -198 0
-403 -199 0
-404 -200 0
-405 -201 0
-406 -199 0
-407 -200 0
-408 -201 0
-448 -199 0
-449 -200 0
-450 -201 0
-568 -202 0
-569 -203 0
-570 -204 0
-322 -205 0
-323 -206 0
-324 -207 0
-358 -205 0
-359 -206 0
-360 -207 0
-496 -205 0
-497 -206 0
-498 -207 0
-211 -208 0
-212 -209 0
-213 -210 0
-271 -208 0
-272 -209 0
-273 -210 0
-295 -208 0
-296 -209 0
-297 -210 0
-448 -208 0
-449 -209 0
-450 -210 0
-502 -208 0
-503 -209 0
-504 -210 0
-568 -211 0
-569 -212 0
-570 -213 0
-580 -211 0
-581 -212 0
-582 -213 0
-370 -214 0
-371 -215 0
-372 -216 0
-460 -214 0
-461 -215 0
-462 -216 0
-481 -214 0
-482 -215 0
-483 -216 0
-508 -214 0
-509 -215 0
-510 -216 0
-556 -214 0
-557 -215 0
-558 -216 0
-223 -217 0
-224 -218 0
-225 -219 0
-466 -217 0
-467 -218 0
-468 -219 0
-484 -217 0
-485 -218 0
-486 -219 0
-313 -220 0
-314 -221 0
-315 -222 0
-316 -220 0
-317 -221 0
-318 -222 0
-337 -220 0
-338 -221 0
-339 -222 0
-517 -220 0
-518 -221 0
-519 -222 0
-553 -220 0
-554 -221 0
-555 -222 0
-556 -220 0
-557 -221 0
-558 -222 0
-565 -220 0
-566 -221 0
-567 -222 0
-286 -223 0
-287 -224 0
-288 -225 0
-400 -223 0
-401 -224 0
-402 -225 0
-442 -223 0
-443 -224 0
-444 -225 0
-451 -223 0
-452 -224 0
-453 -225 0
-478 -223 0
-479 -224 0
-480 -225 0
-541 -223 0
-542 -224 0
-543 -225 0
-292 -226 0
-293 -227 0
-294 -228 0
-361 -226 0
-362 -227 0
-363 -228 0
-487 -226 0
-488 -227 0
-489 -228 0
-490 -226 0
-491 -227 0
-492 -228 0
-589 -226 0
-590 -227 0
-591 -228 0
-235 -229 0
-236 -230 0
-237 -231 0
-274 -229 0
-275 -230 0
-276 -231 0
-442 -229 0
-443 -230 0
-444 -231 0
-448 -229 0
-449 -230 0
-450 -231 0
-343 -232 0
-344 -233 0
-345 -234 0
-460 -235 0
-461 -236 0
-462 -237 0
-565 -235 0
-566 -236 0
-567 -237 0
-568 -235 0
-569 -236 0
-570 -237 0
-304 -238 0
-305 -239 0
-306 -240 0
-367 -238 0
-368 -239 0
-369 -240 0
-418 -238 0
-419 -239 0
-420 -240 0
-298 -241 0
-299 -242 0
-300 -243 0
-556 -244 0
-557 -245 0
-558 -246 0
-436 -247 0
-437 -248 0
-438 -249 0
-439 -247 0
-440 -248 0
-441 -249 0
-451 -250 0
-452 -251 0
-453 -252 0
-541 -253 0
-542 -254 0
-543 -255 0
-547 -253 0
-548 -254 0
-549 -255 0
-313 -256 0
-314 -257 0
-315 -258 0
-394 -256 0
-395 -257 0
-396 -258 0
-553 -256 0
-554 -257 0
-555 -258 0
-409 -259 0
-410 -260 0
-411 -261 0
-589 -259 0
-590 -260 0
-591 -261 0
-463 -262 0
-464 -263 0
-465 -264 0
-349 -265 0
-350 -266 0
-351 -267 0
-391 -268 0
-392 -269 0
-393 -270 0
-574 -268 0
-575 -269 0
-576 -270 0
-349 -271 0
-350 -272 0
-351 -273 0
-361 -271 0
-362 -272 0
-363 -273 0
-301 -274 0
-302 -275 0
-303 -276 0
-325 -274 0
-326 -275 0
-327 -276 0
-511 -274 0
-512 -275 0
-513 -276 0
-346 -277 0
-347 -278 0
-348 -279 0
-409 -277 0
-410 -278 0
-411 -279 0
-343 -280 0
-344 -281 0
-345 -282 0
-286 -283 0
-287 -284 0
-288 -285 0
-493 -283 0
-494 -284 0
-495 -285 0
-325 -286 0
-326 -287 0
-327 -288 0
-358 -286 0
-359 -287 0
-360 -288 0
-511 -286 0
-512 -287 0
-513 -288 0
-304 -289 0
-305 -290 0
-306 -291 0
-415 -289 0
-416 -290 0
-417 -291 0
-583 -289 0
-584 -290 0
-585 -291 0
-538 -292 0
-539 -293 0
-540 -294 0
-340 -295 0
-341 -296 0
-342 -297 0
-343 -295 0
-344 -296 0
-345 -297 0
-514 -295 0
-515 -296 0
-516 -297 0
-553 -298 0
-554 -299 0
-555 -300 0
-439 -301 0
-440 -302 0
-441 -303 0
-466 -304 0
-467 -305 0
-468 -306 0
-529 -304 0
-530 -305 0
-531 -306 0
-556 -304 0
-557 -305 0
-558 -306 0
-319 -307 0
-320 -308 0
-321 -309 0
-496 -307 0
-497 -308 0
-498 -309 0
-409 -310 0
-410 -311 0
-411 -312 0
-430 -310 0
-431 -311 0
-432 -312 0
-526 -310 0
-527 -311 0
-528 -312 0
-583 -310 0
-584 -311 0
-585 -312 0
-331 -316 0
-332 -317 0
-333 -318 0
-379 -316 0
-380 -317 0
-381 -318 0
-472 -316 0
-473 -317 0
-474 -318 0
-454 -319 0
-455 -320 0
-456 -321 0
-520 -319 0
-521 -320 0
-522 -321 0
-460 -322 0
-461 -323 0
-462 -324 0
-439 -325 0
-440 -326 0
-441 -327 0
-484 -325 0
-485 -326 0
-486 -327 0
-559 -325 0
-560 -326 0
-561 -327 0
-589 -325 0
-590 -326 0
-591 -327 0
-595 -325 0
-596 -326 0
-597 -327 0
-352 -328 0
-353 -329 0
-354 -330 0
-487 -328 0
-488 -329 0
-489 -330 0
-400 -331 0
-401 -332 0
-402 -333 0
-571 -331 0
-572 -332 0
-573 -333 0
-361 -334 0
-362 -335 0
-363 -336 0
-571 -334 0
-572 -335 0
-573 -336 0
-379 -337 0
-380 -338 0
-381 -339 0
-412 -337 0
-413 -338 0
-414 -339 0
-559 -337 0
-560 -338 0
-561 -339 0
-418 -340 0
-419 -341 0
-420 -342 0
-451 -340 0
-452 -341 0
-453 -342 0
-358 -346 0
-359 -347 0
-360 -348 0
-487 -346 0
-488 -347 0
-489 -348 0
-562 -346 0
-563 -347 0
-564 -348 0
-388 -349 0
-389 -350 0
-390 -351 0
-358 -352 0
-359 -353 0
-360 -354 0
-424 -352 0
-425 -353 0
-426 -354 0
-487 -352 0
-488 -353 0
-489 -354 0
-436 -355 0
-437 -356 0
-438 -357 0
-406 -358 0
-407 -359 0
-408 -360 0
-565 -358 0
-566 -359 0
-567 -360 0
-562 -361 0
-563 -362 0
-564 -363 0
-430 -364 0
-431 -365 0
-432 -366 0
-490 -364 0
-491 -365 0
-492 -366 0
-472 -367 0
-473 -368 0
-474 -369 0
-454 -370 0
-455 -371 0
-456 -372 0
-499 -370 0
-500 -371 0
-501 -372 0
-430 -373 0
-431 -374 0
-432 -375 0
-388 -376 0
-389 -377 0
-390 -378 0
-418 -376 0
-419 -377 0
-420 -378 0
-457 -376 0
-458 -377 0
-459 -378 0
-478 -376 0
-479 -377 0
-480 -378 0
-406 -379 0
-407 -380 0
-408 -381 0
-439 -379 0
-440 -380 0
-441 -381 0
-553 -379 0
-554 -380 0
-555 -381 0
-592 -382 0
-593 -383 0
-594 -384 0
-409 -385 0
-410 -386 0
-411 -387 0
-508 -385 0
-509 -386 0
-510 -387 0
-505 -391 0
-506 -392 0
-507 -393 0
-502 -394 0
-503 -395 0
-504 -396 0
-445 -397 0
-446 -398 0
-447 -399 0
-412 -400 0
-413 -401 0
-414 -402 0
-505 -400 0
-506 -401 0
-507 -402 0
-436 -403 0
-437 -404 0
-438 -405 0
-418 -406 0
-419 -407 0
-420 -408 0
-529 -406 0
-530 -407 0
-531 -408 0
-577 -409 0
-578 -410 0
-579 -411 0
-466 -415 0
-467 -416 0
-468 -417 0
-493 -415 0
-494 -416 0
-495 -417 0
-532 -415 0
-533 -416 0
-534 -417 0
-571 -415 0
-572 -416 0
-573 -417 0
-439 -421 0
-440 -422 0
-441 -423 0
-502 -421 0
-503 -422 0
-504 -423 0
-565 -421 0
-566 -422 0
-567 -423 0
-460 -424 0
-461 -425 0
-462 -426 0
-586 -427 0
-587 -428 0
-588 -429 0
-598 -427 0
-599 -428 0
-600 -429 0
-460 -430 0
-461 -431 0
-462 -432 0
-475 -430 0
-476 -431 0
-477 -432 0
-574 -430 0
-575 -431 0
-576 -432 0
-583 -433 0
-584 -434 0
-585 -435 0
-598 -433 0
-599 -434 0
-600 -435 0
-475 -436 0
-476 -437 0
-477 -438 0
-448 -439 0
-449 -440 0
-450 -441 0
-538 -439 0
-539 -440 0
-540 -441 0
-445 -442 0
-446 -443 0
-447 -444 0
-466 -442 0
-467 -443 0
-468 -444 0
-466 -445 0
-467 -446 0
-468 -447 0
-502 -445 0
-503 -446 0
-504 -447 0
-514 -445 0
-515 -446 0
-516 -447 0
-457 -451 0
-458 -452 0
-459 -453 0
-553 -451 0
-554 -452 0
-555 -453 0
-547 -454 0
-548 -455 0
-549 -456 0
-574 -454 0
-575 -455 0
-576 -456 0
-538 -457 0
-539 -458 0
-540 -459 0
-511 -460 0
-512 -461 0
-513 -462 0
-553 -460 0
-554 -461 0
-555 -462 0
-514 -463 0
-515 -464 0
-516 -465 0
-475 -466 0
-476 -467 0
-477 -468 0
-532 -469 0
-533 -470 0
-534 -471 0
-541 -469 0
-542 -470 0
-543 -471 0
-496 -472 0
-497 -473 0
-498 -474 0
-532 -472 0
-533 -473 0
-534 -474 0
-493 -475 0
-494 -476 0
-495 -477 0
-559 -478 0
-560 -479 0
-561 -480 0
-598 -478 0
-599 -479 0
-600 -480 0
-562 -481 0
-563 -482 0
-564 -483 0
-571 -484 0
-572 -485 0
-573 -486 0
-598 -484 0
-599 -485 0
-600 -486 0
-541 -487 0
-542 -488 0
-543 -489 0
-526 -496 0
-527 -497 0
-528 -498 0
-547 -496 0
-548 -497 0
-549 -498 0
-514 -505 0
-515 -506 0
-516 -507 0
-553 -505 0
-554 -506 0
-555 -507 0
-586 -505 0
-587 -506 0
-588 -507 0
-514 -511 0
-515 -512 0
-516 -513 0
-559 -511 0
-560 -512 0
-561 -513 0
-598 -514 0
-599 -515 0
-600 -516 0
-556 -520 0
-557 -521 0
-558 -522 0
-535 -526 0
-536 -527 0
-537 -528 0
-544 -526 0
-545 -527 0
-546 -528 0
-556 -526 0
-557 -527 0
-558 -528 0
-586 -529 0
-587 -530 0
-588 -531 0
-589 -529 0
-590 -530 0
-591 -531 0
-559 -532 0
-560 -533 0
-561 -534 0
-598 -544 0
-599 -545 0
-600 -546 0
-574 -547 0
-575 -548 0
-576 -549 0
-580 -547 0
-581 -548 0
-582 -549 0
-580 -553 0
-581 -554 0
-582 -555 0
